\* Source Pyomo model name=unknown *\

min 
x706:
+0 x1
+0 x10
+0 x11
+0 x12
+0.02 x13
+0 x14
+0 x15
+0 x16
+0 x17
+0.01 x18
+0.050000000000000003 x19
+0 x2
+0 x20
+0 x21
+0 x22
+0 x23
+0 x24
+0 x25
+0 x26
+0 x27
+0 x28
+0 x29
+0 x3
+0 x30
+0 x31
+0 x32
+0 x33
+0 x34
+0 x35
+0 x36
+0 x37
+0 x38
+0 x39
+0 x4
+0 x40
+0 x41
+0 x42
+0 x5
+0 x6
+0 x7
+0 x8
+0 x9

s.t.

c_e_x707_:
+1 x13
-1 x671
-1 x672
= 0

c_e_x708_:
+1 x18
-1 x673
= 0

c_e_x709_:
+1 x19
-1 x674
-1 x675
= 0

c_e_x710_:
+1 x1
-0.54000000000000004 x694
= 0

c_e_x711_:
+1 x2
-0.54000000000000004 x695
= 0

c_e_x712_:
+1 x3
-0.83999999999999997 x696
= 0

c_e_x713_:
+1 x4
-0.83999999999999997 x697
= 0

c_e_x714_:
+1 x5
-0.83333333333333326 x698
= 0

c_e_x715_:
+1 x6
-0.78947368421052633 x699
= 0

c_e_x716_:
+1 x7
-0.93000000000000005 x700
= 0

c_e_x717_:
-0.090909090909090912 x701
+1 x8
= 0

c_e_x718_:
-0.6923076923076924 x702
+1 x9
= 0

c_e_x719_:
+1 x10
-0.70512820512820518 x703
= 0

c_e_x720_:
+1 x14
-1.5340909090909089 x704
= 0

c_e_x721_:
-1 x672
+1 x694
= 0

c_e_x722_:
-1 x671
+1 x695
= 0

c_e_x723_:
-1 x675
+1 x696
= 0

c_e_x724_:
-1 x674
+1 x697
= 0

c_e_x725_:
-1 x686
+1 x698
= 0

c_e_x726_:
-1 x687
+1 x699
= 0

c_e_x727_:
-1 x673
+1 x700
= 0

c_e_x728_:
-1 x682
+1 x701
= 0

c_e_x729_:
-1 x683
+1 x702
= 0

c_e_x730_:
-1 x684
+1 x703
= 0

c_e_x731_:
-1 x685
+1 x704
= 0

c_e_x732_:
-1 x671
+1 x695
= 0

c_e_x733_:
-1 x672
+1 x694
= 0

c_e_x734_:
-1 x673
+1 x700
= 0

c_e_x735_:
-1 x674
+1 x697
= 0

c_e_x736_:
-1 x675
+1 x696
= 0

c_e_x737_:
-1 x682
+1 x701
= 0

c_e_x738_:
-1 x683
+1 x702
= 0

c_e_x739_:
-1 x684
+1 x703
= 0

c_e_x740_:
-1 x685
+1 x704
= 0

c_e_x741_:
-1 x686
+1 x698
= 0

c_e_x742_:
-1 x687
+1 x699
= 0

c_e_x743_:
+1 x1
-1 x676
= 0

c_e_x744_:
+1 x2
-1 x677
= 0

c_e_x745_:
-1 x678
+0.67000000000000004 x7
= 0

c_e_x746_:
-1 x679
+0.33000000000000002 x7
= 0

c_e_x747_:
+1 x4
-1 x680
= 0

c_e_x748_:
+1 x3
-1 x681
= 0

c_e_x749_:
-1 x688
+1 x8
= 0

c_e_x750_:
-1 x689
+1 x9
= 0

c_e_x751_:
+1 x10
-1 x690
= 0

c_e_x752_:
+1 x14
-1 x691
= 0

c_e_x753_:
+1 x5
-1 x692
= 0

c_e_x754_:
+1 x6
-1 x693
= 0

c_e_x755_:
+1 x692
+1 x693
= 858

c_e_x756_:
+1 x688
= 7.5

c_e_x757_:
+1 x689
= 24.199999999999999

c_e_x758_:
+1 x690
= 130.30000000000001

c_e_x759_:
+1 x691
= 414.5

c_e_x760_:
+1 x11
-1 x692
-1 x693
= 0

c_e_x761_:
+1 x15
-1 x688
= 0

c_e_x762_:
+1 x16
-1 x689
= 0

c_e_x763_:
+1 x12
-1 x690
= 0

c_e_x764_:
+1 x17
-1 x691
= 0

c_e_x765_:
+1 x676
+1 x678
+1 x681
-1 x682
-1 x683
-1 x684
-1 x685
-1 x686
= 0

c_e_x766_:
+1 x677
+1 x679
+1 x680
-1 x687
= 0

c_e_x767_:
+1 x20
-1 x676
-1 x678
-1 x681
= 0

c_e_x768_:
+1 x21
-1 x677
-1 x679
-1 x680
= 0

c_u_x769_:
+1 x200
+ [
-1 x200 * x43
]
<= 0

c_u_x770_:
+1 x201
+ [
-1 x201 * x44
]
<= 0

c_u_x771_:
+1 x202
+ [
-1 x202 * x45
]
<= 0

c_u_x772_:
+1 x203
+ [
-1 x203 * x46
]
<= 0

c_u_x773_:
+1 x204
+ [
-1 x204 * x47
]
<= 0

c_u_x774_:
+1 x205
+ [
-1 x205 * x48
]
<= 0

c_u_x775_:
+1 x206
+ [
-1 x206 * x49
]
<= 0

c_u_x776_:
+1 x207
+ [
-1 x207 * x50
]
<= 0

c_u_x777_:
+1 x208
+ [
-1 x208 * x51
]
<= 0

c_u_x778_:
+1 x209
+ [
-1 x209 * x52
]
<= 0

c_u_x779_:
+1 x210
+ [
-1 x210 * x53
]
<= 0

c_u_x780_:
+1 x211
+ [
-1 x211 * x54
]
<= 0

c_u_x781_:
+1 x212
+ [
-1 x212 * x55
]
<= 0

c_u_x782_:
+1 x213
+ [
-1 x213 * x56
]
<= 0

c_u_x783_:
+1 x214
+ [
-1 x214 * x57
]
<= 0

c_u_x784_:
+1 x215
+ [
-1 x215 * x58
]
<= 0

c_u_x785_:
+1 x216
+ [
-1 x216 * x59
]
<= 0

c_u_x786_:
+1 x217
+ [
-1 x217 * x60
]
<= 0

c_u_x787_:
+1 x218
+ [
-1 x218 * x61
]
<= 0

c_u_x788_:
+1 x219
+ [
-1 x219 * x62
]
<= 0

c_u_x789_:
+1 x220
+ [
-1 x220 * x63
]
<= 0

c_u_x790_:
+1 x221
+ [
-1 x221 * x64
]
<= 0

c_u_x791_:
+1 x222
+ [
-1 x222 * x65
]
<= 0

c_u_x792_:
+1 x223
+ [
-1 x223 * x66
]
<= 0

c_u_x793_:
+1 x224
+ [
-1 x224 * x67
]
<= 0

c_u_x794_:
+1 x225
+ [
-1 x225 * x68
]
<= 0

c_u_x795_:
+1 x226
+ [
-1 x226 * x69
]
<= 0

c_u_x796_:
+1 x227
+ [
-1 x227 * x70
]
<= 0

c_u_x797_:
+1 x228
+ [
-1 x228 * x71
]
<= 0

c_u_x798_:
+1 x229
+ [
-1 x229 * x72
]
<= 0

c_u_x799_:
+1 x230
+ [
-1 x230 * x73
]
<= 0

c_u_x800_:
+1 x231
+ [
-1 x231 * x74
]
<= 0

c_u_x801_:
+1 x232
+ [
-1 x232 * x75
]
<= 0

c_u_x802_:
+1 x233
+ [
-1 x233 * x76
]
<= 0

c_u_x803_:
+1 x234
+ [
-1 x234 * x77
]
<= 0

c_u_x804_:
+1 x235
+ [
-1 x235 * x78
]
<= 0

c_u_x805_:
+1 x236
+ [
-1 x236 * x79
]
<= 0

c_u_x806_:
+1 x237
+ [
-1 x237 * x80
]
<= 0

c_u_x807_:
+1 x238
+ [
-1 x238 * x81
]
<= 0

c_u_x808_:
+1 x239
+ [
-1 x239 * x82
]
<= 0

c_u_x809_:
+1 x240
+ [
-1 x240 * x83
]
<= 0

c_u_x810_:
+1 x241
+ [
-1 x241 * x84
]
<= 0

c_u_x811_:
+1 x242
+ [
-1 x242 * x85
]
<= 0

c_u_x812_:
+1 x243
+ [
-1 x243 * x86
]
<= 0

c_u_x813_:
+1 x244
+ [
-1 x244 * x87
]
<= 0

c_u_x814_:
+1 x245
+ [
-1 x245 * x88
]
<= 0

c_u_x815_:
+1 x246
+ [
-1 x246 * x89
]
<= 0

c_u_x816_:
+1 x247
+ [
-1 x247 * x90
]
<= 0

c_u_x817_:
+1 x248
+ [
-1 x248 * x91
]
<= 0

c_u_x818_:
+1 x249
+ [
-1 x249 * x92
]
<= 0

c_u_x819_:
+1 x250
+ [
-1 x250 * x93
]
<= 0

c_u_x820_:
+1 x251
+ [
-1 x251 * x94
]
<= 0

c_u_x821_:
+1 x252
+ [
-1 x252 * x95
]
<= 0

c_u_x822_:
+1 x253
+ [
-1 x253 * x96
]
<= 0

c_u_x823_:
+1 x254
+ [
-1 x254 * x97
]
<= 0

c_u_x824_:
+1 x255
+ [
-1 x255 * x98
]
<= 0

c_u_x825_:
+1 x256
+ [
-1 x256 * x99
]
<= 0

c_u_x826_:
+1 x257
+ [
-1 x100 * x257
]
<= 0

c_u_x827_:
+1 x258
+ [
-1 x101 * x258
]
<= 0

c_u_x828_:
+1 x259
+ [
-1 x102 * x259
]
<= 0

c_u_x829_:
+1 x260
+ [
-1 x103 * x260
]
<= 0

c_u_x830_:
+1 x261
+ [
-1 x104 * x261
]
<= 0

c_u_x831_:
+1 x262
+ [
-1 x105 * x262
]
<= 0

c_u_x832_:
+1 x263
+ [
-1 x106 * x263
]
<= 0

c_u_x833_:
+1 x264
+ [
-1 x107 * x264
]
<= 0

c_u_x834_:
+1 x265
+ [
-1 x108 * x265
]
<= 0

c_u_x835_:
+1 x266
+ [
-1 x109 * x266
]
<= 0

c_u_x836_:
+1 x267
+ [
-1 x110 * x267
]
<= 0

c_u_x837_:
+1 x268
+ [
-1 x111 * x268
]
<= 0

c_u_x838_:
+1 x269
+ [
-1 x112 * x269
]
<= 0

c_u_x839_:
+1 x270
+ [
-1 x113 * x270
]
<= 0

c_u_x840_:
+1 x271
+ [
-1 x114 * x271
]
<= 0

c_u_x841_:
+1 x272
+ [
-1 x115 * x272
]
<= 0

c_u_x842_:
+1 x273
+ [
-1 x116 * x273
]
<= 0

c_u_x843_:
+1 x274
+ [
-1 x117 * x274
]
<= 0

c_u_x844_:
+1 x275
+ [
-1 x118 * x275
]
<= 0

c_u_x845_:
+1 x276
+ [
-1 x119 * x276
]
<= 0

c_u_x846_:
+1 x277
+ [
-1 x120 * x277
]
<= 0

c_u_x847_:
+1 x278
+ [
-1 x121 * x278
]
<= 0

c_u_x848_:
+1 x279
+ [
-1 x122 * x279
]
<= 0

c_u_x849_:
+1 x280
+ [
-1 x123 * x280
]
<= 0

c_u_x850_:
+1 x281
+ [
-1 x124 * x281
]
<= 0

c_u_x851_:
+1 x282
+ [
-1 x125 * x282
]
<= 0

c_u_x852_:
+1 x283
+ [
-1 x126 * x283
]
<= 0

c_u_x853_:
+1 x284
+ [
-1 x127 * x284
]
<= 0

c_u_x854_:
+1 x285
+ [
-1 x128 * x285
]
<= 0

c_u_x855_:
+1 x286
+ [
-1 x129 * x286
]
<= 0

c_u_x856_:
+1 x287
+ [
-1 x130 * x287
]
<= 0

c_u_x857_:
+1 x288
+ [
-1 x131 * x288
]
<= 0

c_u_x858_:
+1 x289
+ [
-1 x132 * x289
]
<= 0

c_u_x859_:
+1 x290
+ [
-1 x133 * x290
]
<= 0

c_u_x860_:
+1 x291
+ [
-1 x134 * x291
]
<= 0

c_u_x861_:
+1 x292
+ [
-1 x135 * x292
]
<= 0

c_u_x862_:
+1 x293
+ [
-1 x136 * x293
]
<= 0

c_u_x863_:
+1 x294
+ [
-1 x137 * x294
]
<= 0

c_u_x864_:
+1 x295
+ [
-1 x138 * x295
]
<= 0

c_u_x865_:
+1 x296
+ [
-1 x139 * x296
]
<= 0

c_u_x866_:
+1 x297
+ [
-1 x140 * x297
]
<= 0

c_u_x867_:
+1 x298
+ [
-1 x141 * x298
]
<= 0

c_u_x868_:
+1 x299
+ [
-1 x142 * x299
]
<= 0

c_u_x869_:
+1 x300
+ [
-1 x143 * x300
]
<= 0

c_u_x870_:
+1 x301
+ [
-1 x144 * x301
]
<= 0

c_u_x871_:
+1 x302
+ [
-1 x145 * x302
]
<= 0

c_u_x872_:
+1 x303
+ [
-1 x146 * x303
]
<= 0

c_u_x873_:
+1 x304
+ [
-1 x147 * x304
]
<= 0

c_u_x874_:
+1 x305
+ [
-1 x148 * x305
]
<= 0

c_u_x875_:
+1 x306
+ [
-1 x149 * x306
]
<= 0

c_u_x876_:
+1 x307
+ [
-1 x150 * x307
]
<= 0

c_u_x877_:
+1 x308
+ [
-1 x151 * x308
]
<= 0

c_u_x878_:
+1 x309
+ [
-1 x152 * x309
]
<= 0

c_u_x879_:
+1 x310
+ [
-1 x153 * x310
]
<= 0

c_u_x880_:
+1 x311
+ [
-1 x154 * x311
]
<= 0

c_u_x881_:
+1 x312
+ [
-1 x155 * x312
]
<= 0

c_u_x882_:
+1 x313
+ [
-1 x156 * x313
]
<= 0

c_u_x883_:
+1 x314
+ [
-1 x157 * x314
]
<= 0

c_u_x884_:
+1 x315
+ [
-1 x158 * x315
]
<= 0

c_u_x885_:
+1 x316
+ [
-1 x159 * x316
]
<= 0

c_u_x886_:
+1 x317
+ [
-1 x160 * x317
]
<= 0

c_u_x887_:
+1 x318
+ [
-1 x161 * x318
]
<= 0

c_u_x888_:
+1 x319
+ [
-1 x162 * x319
]
<= 0

c_u_x889_:
+1 x320
+ [
-1 x163 * x320
]
<= 0

c_u_x890_:
+1 x321
+ [
-1 x164 * x321
]
<= 0

c_u_x891_:
+1 x322
+ [
-1 x165 * x322
]
<= 0

c_u_x892_:
+1 x323
+ [
-1 x166 * x323
]
<= 0

c_u_x893_:
+1 x324
+ [
-1 x167 * x324
]
<= 0

c_u_x894_:
+1 x325
+ [
-1 x168 * x325
]
<= 0

c_u_x895_:
+1 x326
+ [
-1 x169 * x326
]
<= 0

c_u_x896_:
+1 x327
+ [
-1 x170 * x327
]
<= 0

c_u_x897_:
+1 x328
+ [
-1 x171 * x328
]
<= 0

c_u_x898_:
+1 x329
+ [
-1 x172 * x329
]
<= 0

c_u_x899_:
+1 x330
+ [
-1 x173 * x330
]
<= 0

c_u_x900_:
+1 x331
+ [
-1 x174 * x331
]
<= 0

c_u_x901_:
+1 x332
+ [
-1 x175 * x332
]
<= 0

c_u_x902_:
+1 x333
+ [
-1 x176 * x333
]
<= 0

c_u_x903_:
+1 x334
+ [
-1 x177 * x334
]
<= 0

c_u_x904_:
+1 x335
+ [
-1 x178 * x335
]
<= 0

c_u_x905_:
+1 x336
+ [
-1 x179 * x336
]
<= 0

c_u_x906_:
+1 x337
+ [
-1 x180 * x337
]
<= 0

c_u_x907_:
+1 x338
+ [
-1 x181 * x338
]
<= 0

c_u_x908_:
+1 x339
+ [
-1 x182 * x339
]
<= 0

c_u_x909_:
+1 x340
+ [
-1 x183 * x340
]
<= 0

c_u_x910_:
+1 x341
+ [
-1 x184 * x341
]
<= 0

c_u_x911_:
+1 x342
+ [
-1 x185 * x342
]
<= 0

c_u_x912_:
+1 x343
+ [
-1 x186 * x343
]
<= 0

c_u_x913_:
+1 x344
+ [
-1 x187 * x344
]
<= 0

c_u_x914_:
+1 x345
+ [
-1 x188 * x345
]
<= 0

c_u_x915_:
+1 x346
+ [
-1 x189 * x346
]
<= 0

c_u_x916_:
+1 x347
+ [
-1 x190 * x347
]
<= 0

c_u_x917_:
+1 x348
+ [
-1 x191 * x348
]
<= 0

c_u_x918_:
+1 x349
+ [
-1 x192 * x349
]
<= 0

c_u_x919_:
+1 x350
+ [
-1 x193 * x350
]
<= 0

c_u_x920_:
+1 x351
+ [
-1 x194 * x351
]
<= 0

c_u_x921_:
+1 x352
+ [
-1 x195 * x352
]
<= 0

c_u_x922_:
+1 x353
+ [
-1 x196 * x353
]
<= 0

c_u_x923_:
+1 x354
+ [
-1 x197 * x354
]
<= 0

c_u_x924_:
+1 x355
+ [
-1 x198 * x355
]
<= 0

c_u_x925_:
+1 x356
+ [
-1 x199 * x356
]
<= 0

c_u_x926_:
+1 x1
+ [
-1 x1 * x22
]
<= 0

c_u_x927_:
+1 x2
+ [
-1 x2 * x23
]
<= 0

c_u_x928_:
+1 x3
+ [
-1 x24 * x3
]
<= 0

c_u_x929_:
+1 x4
+ [
-1 x25 * x4
]
<= 0

c_u_x930_:
+1 x5
+ [
-1 x26 * x5
]
<= 0

c_u_x931_:
+1 x6
+ [
-1 x27 * x6
]
<= 0

c_u_x932_:
+1 x7
+ [
-1 x28 * x7
]
<= 0

c_u_x933_:
+1 x8
+ [
-1 x29 * x8
]
<= 0

c_u_x934_:
+1 x9
+ [
-1 x30 * x9
]
<= 0

c_u_x935_:
+1 x10
+ [
-1 x10 * x31
]
<= 0

c_u_x936_:
+1 x11
+ [
-1 x11 * x32
]
<= 0

c_u_x937_:
+1 x12
+ [
-1 x12 * x33
]
<= 0

c_u_x938_:
+1 x13
+ [
-1 x13 * x34
]
<= 0

c_u_x939_:
+1 x14
+ [
-1 x14 * x35
]
<= 0

c_u_x940_:
+1 x15
+ [
-1 x15 * x36
]
<= 0

c_u_x941_:
+1 x16
+ [
-1 x16 * x37
]
<= 0

c_u_x942_:
+1 x17
+ [
-1 x17 * x38
]
<= 0

c_u_x943_:
+1 x18
+ [
-1 x18 * x39
]
<= 0

c_u_x944_:
+1 x19
+ [
-1 x19 * x40
]
<= 0

c_u_x945_:
+1 x20
+ [
-1 x20 * x41
]
<= 0

c_u_x946_:
+1 x21
+ [
-1 x21 * x42
]
<= 0

c_e_x947_:
+0 x13
+0.073200000000000001 x18
+0 x19
-1 x705
= 0

c_u_x948_:
+1 x705
<= 87.142799999999994

c_e_ONE_VAR_CONSTANT: 
ONE_VAR_CONSTANT = 1.0

bounds
   0 <= x1 <= 999999
   0 <= x2 <= 999999
   0 <= x3 <= 999999
   0 <= x4 <= 999999
   0 <= x5 <= 999999
   0 <= x6 <= 999999
   0 <= x7 <= 999999
   0 <= x8 <= 999999
   0 <= x9 <= 999999
   0 <= x10 <= 999999
   0 <= x11 <= +inf
   0 <= x12 <= +inf
   0 <= x13 <= 400
   0 <= x14 <= 999999
   0 <= x15 <= +inf
   0 <= x16 <= +inf
   0 <= x17 <= +inf
   0 <= x18 <= 9999999
   0 <= x19 <= 9999999
   0 <= x20 <= +inf
   0 <= x21 <= +inf
   0 <= x22 <= 1
   0 <= x23 <= 1
   0 <= x24 <= 1
   0 <= x25 <= 1
   0 <= x26 <= 1
   0 <= x27 <= 1
   0 <= x28 <= 1
   0 <= x29 <= 1
   0 <= x30 <= 1
   0 <= x31 <= 1
   0 <= x32 <= 1
   0 <= x33 <= 1
   0 <= x34 <= 1
   0 <= x35 <= 1
   0 <= x36 <= 1
   0 <= x37 <= 1
   0 <= x38 <= 1
   0 <= x39 <= 1
   0 <= x40 <= 1
   0 <= x41 <= 1
   0 <= x42 <= 1
   0 <= x43 <= 1
   0 <= x44 <= 1
   0 <= x45 <= 1
   0 <= x46 <= 1
   0 <= x47 <= 1
   0 <= x48 <= 1
   0 <= x49 <= 1
   0 <= x50 <= 1
   0 <= x51 <= 1
   0 <= x52 <= 1
   0 <= x53 <= 1
   0 <= x54 <= 1
   0 <= x55 <= 1
   0 <= x56 <= 1
   0 <= x57 <= 1
   0 <= x58 <= 1
   0 <= x59 <= 1
   0 <= x60 <= 1
   0 <= x61 <= 1
   0 <= x62 <= 1
   0 <= x63 <= 1
   0 <= x64 <= 1
   0 <= x65 <= 1
   0 <= x66 <= 1
   0 <= x67 <= 1
   0 <= x68 <= 1
   0 <= x69 <= 1
   0 <= x70 <= 1
   0 <= x71 <= 1
   0 <= x72 <= 1
   0 <= x73 <= 1
   0 <= x74 <= 1
   0 <= x75 <= 1
   0 <= x76 <= 1
   0 <= x77 <= 1
   0 <= x78 <= 1
   0 <= x79 <= 1
   0 <= x80 <= 1
   0 <= x81 <= 1
   0 <= x82 <= 1
   0 <= x83 <= 1
   0 <= x84 <= 1
   0 <= x85 <= 1
   0 <= x86 <= 1
   0 <= x87 <= 1
   0 <= x88 <= 1
   0 <= x89 <= 1
   0 <= x90 <= 1
   0 <= x91 <= 1
   0 <= x92 <= 1
   0 <= x93 <= 1
   0 <= x94 <= 1
   0 <= x95 <= 1
   0 <= x96 <= 1
   0 <= x97 <= 1
   0 <= x98 <= 1
   0 <= x99 <= 1
   0 <= x100 <= 1
   0 <= x101 <= 1
   0 <= x102 <= 1
   0 <= x103 <= 1
   0 <= x104 <= 1
   0 <= x105 <= 1
   0 <= x106 <= 1
   0 <= x107 <= 1
   0 <= x108 <= 1
   0 <= x109 <= 1
   0 <= x110 <= 1
   0 <= x111 <= 1
   0 <= x112 <= 1
   0 <= x113 <= 1
   0 <= x114 <= 1
   0 <= x115 <= 1
   0 <= x116 <= 1
   0 <= x117 <= 1
   0 <= x118 <= 1
   0 <= x119 <= 1
   0 <= x120 <= 1
   0 <= x121 <= 1
   0 <= x122 <= 1
   0 <= x123 <= 1
   0 <= x124 <= 1
   0 <= x125 <= 1
   0 <= x126 <= 1
   0 <= x127 <= 1
   0 <= x128 <= 1
   0 <= x129 <= 1
   0 <= x130 <= 1
   0 <= x131 <= 1
   0 <= x132 <= 1
   0 <= x133 <= 1
   0 <= x134 <= 1
   0 <= x135 <= 1
   0 <= x136 <= 1
   0 <= x137 <= 1
   0 <= x138 <= 1
   0 <= x139 <= 1
   0 <= x140 <= 1
   0 <= x141 <= 1
   0 <= x142 <= 1
   0 <= x143 <= 1
   0 <= x144 <= 1
   0 <= x145 <= 1
   0 <= x146 <= 1
   0 <= x147 <= 1
   0 <= x148 <= 1
   0 <= x149 <= 1
   0 <= x150 <= 1
   0 <= x151 <= 1
   0 <= x152 <= 1
   0 <= x153 <= 1
   0 <= x154 <= 1
   0 <= x155 <= 1
   0 <= x156 <= 1
   0 <= x157 <= 1
   0 <= x158 <= 1
   0 <= x159 <= 1
   0 <= x160 <= 1
   0 <= x161 <= 1
   0 <= x162 <= 1
   0 <= x163 <= 1
   0 <= x164 <= 1
   0 <= x165 <= 1
   0 <= x166 <= 1
   0 <= x167 <= 1
   0 <= x168 <= 1
   0 <= x169 <= 1
   0 <= x170 <= 1
   0 <= x171 <= 1
   0 <= x172 <= 1
   0 <= x173 <= 1
   0 <= x174 <= 1
   0 <= x175 <= 1
   0 <= x176 <= 1
   0 <= x177 <= 1
   0 <= x178 <= 1
   0 <= x179 <= 1
   0 <= x180 <= 1
   0 <= x181 <= 1
   0 <= x182 <= 1
   0 <= x183 <= 1
   0 <= x184 <= 1
   0 <= x185 <= 1
   0 <= x186 <= 1
   0 <= x187 <= 1
   0 <= x188 <= 1
   0 <= x189 <= 1
   0 <= x190 <= 1
   0 <= x191 <= 1
   0 <= x192 <= 1
   0 <= x193 <= 1
   0 <= x194 <= 1
   0 <= x195 <= 1
   0 <= x196 <= 1
   0 <= x197 <= 1
   0 <= x198 <= 1
   0 <= x199 <= 1
   0 <= x200 <= +inf
   0 <= x201 <= +inf
   0 <= x202 <= +inf
   0 <= x203 <= +inf
   0 <= x204 <= +inf
   0 <= x205 <= +inf
   0 <= x206 <= +inf
   0 <= x207 <= +inf
   0 <= x208 <= +inf
   0 <= x209 <= +inf
   0 <= x210 <= +inf
   0 <= x211 <= +inf
   0 <= x212 <= +inf
   0 <= x213 <= +inf
   0 <= x214 <= +inf
   0 <= x215 <= +inf
   0 <= x216 <= +inf
   0 <= x217 <= +inf
   0 <= x218 <= +inf
   0 <= x219 <= +inf
   0 <= x220 <= +inf
   0 <= x221 <= +inf
   0 <= x222 <= +inf
   0 <= x223 <= +inf
   0 <= x224 <= +inf
   0 <= x225 <= +inf
   0 <= x226 <= +inf
   0 <= x227 <= +inf
   0 <= x228 <= +inf
   0 <= x229 <= +inf
   0 <= x230 <= +inf
   0 <= x231 <= +inf
   0 <= x232 <= +inf
   0 <= x233 <= +inf
   0 <= x234 <= +inf
   0 <= x235 <= +inf
   0 <= x236 <= +inf
   0 <= x237 <= +inf
   0 <= x238 <= +inf
   0 <= x239 <= +inf
   0 <= x240 <= +inf
   0 <= x241 <= +inf
   0 <= x242 <= +inf
   0 <= x243 <= +inf
   0 <= x244 <= +inf
   0 <= x245 <= +inf
   0 <= x246 <= +inf
   0 <= x247 <= +inf
   0 <= x248 <= +inf
   0 <= x249 <= +inf
   0 <= x250 <= +inf
   0 <= x251 <= +inf
   0 <= x252 <= +inf
   0 <= x253 <= +inf
   0 <= x254 <= +inf
   0 <= x255 <= +inf
   0 <= x256 <= +inf
   0 <= x257 <= +inf
   0 <= x258 <= +inf
   0 <= x259 <= +inf
   0 <= x260 <= +inf
   0 <= x261 <= +inf
   0 <= x262 <= +inf
   0 <= x263 <= +inf
   0 <= x264 <= +inf
   0 <= x265 <= +inf
   0 <= x266 <= +inf
   0 <= x267 <= +inf
   0 <= x268 <= +inf
   0 <= x269 <= +inf
   0 <= x270 <= +inf
   0 <= x271 <= +inf
   0 <= x272 <= +inf
   0 <= x273 <= +inf
   0 <= x274 <= +inf
   0 <= x275 <= +inf
   0 <= x276 <= +inf
   0 <= x277 <= +inf
   0 <= x278 <= +inf
   0 <= x279 <= +inf
   0 <= x280 <= +inf
   0 <= x281 <= +inf
   0 <= x282 <= +inf
   0 <= x283 <= +inf
   0 <= x284 <= +inf
   0 <= x285 <= +inf
   0 <= x286 <= +inf
   0 <= x287 <= +inf
   0 <= x288 <= +inf
   0 <= x289 <= +inf
   0 <= x290 <= +inf
   0 <= x291 <= +inf
   0 <= x292 <= +inf
   0 <= x293 <= +inf
   0 <= x294 <= +inf
   0 <= x295 <= +inf
   0 <= x296 <= +inf
   0 <= x297 <= +inf
   0 <= x298 <= +inf
   0 <= x299 <= +inf
   0 <= x300 <= +inf
   0 <= x301 <= +inf
   0 <= x302 <= +inf
   0 <= x303 <= +inf
   0 <= x304 <= +inf
   0 <= x305 <= +inf
   0 <= x306 <= +inf
   0 <= x307 <= +inf
   0 <= x308 <= +inf
   0 <= x309 <= +inf
   0 <= x310 <= +inf
   0 <= x311 <= +inf
   0 <= x312 <= +inf
   0 <= x313 <= +inf
   0 <= x314 <= +inf
   0 <= x315 <= +inf
   0 <= x316 <= +inf
   0 <= x317 <= +inf
   0 <= x318 <= +inf
   0 <= x319 <= +inf
   0 <= x320 <= +inf
   0 <= x321 <= +inf
   0 <= x322 <= +inf
   0 <= x323 <= +inf
   0 <= x324 <= +inf
   0 <= x325 <= +inf
   0 <= x326 <= +inf
   0 <= x327 <= +inf
   0 <= x328 <= +inf
   0 <= x329 <= +inf
   0 <= x330 <= +inf
   0 <= x331 <= +inf
   0 <= x332 <= +inf
   0 <= x333 <= +inf
   0 <= x334 <= +inf
   0 <= x335 <= +inf
   0 <= x336 <= +inf
   0 <= x337 <= +inf
   0 <= x338 <= +inf
   0 <= x339 <= +inf
   0 <= x340 <= +inf
   0 <= x341 <= +inf
   0 <= x342 <= +inf
   0 <= x343 <= +inf
   0 <= x344 <= +inf
   0 <= x345 <= +inf
   0 <= x346 <= +inf
   0 <= x347 <= +inf
   0 <= x348 <= +inf
   0 <= x349 <= +inf
   0 <= x350 <= +inf
   0 <= x351 <= +inf
   0 <= x352 <= +inf
   0 <= x353 <= +inf
   0 <= x354 <= +inf
   0 <= x355 <= +inf
   0 <= x356 <= +inf
   0 <= x671 <= +inf
   0 <= x672 <= +inf
   0 <= x673 <= +inf
   0 <= x674 <= +inf
   0 <= x675 <= +inf
   0 <= x676 <= +inf
   0 <= x677 <= +inf
   0 <= x678 <= +inf
   0 <= x679 <= +inf
   0 <= x680 <= +inf
   0 <= x681 <= +inf
   0 <= x682 <= +inf
   0 <= x683 <= +inf
   0 <= x684 <= +inf
   0 <= x685 <= +inf
   0 <= x686 <= +inf
   0 <= x687 <= +inf
   0 <= x688 <= +inf
   0 <= x689 <= +inf
   0 <= x690 <= +inf
   0 <= x691 <= +inf
   0 <= x692 <= +inf
   0 <= x693 <= +inf
   0 <= x694 <= +inf
   0 <= x695 <= +inf
   0 <= x696 <= +inf
   0 <= x697 <= +inf
   0 <= x698 <= +inf
   0 <= x699 <= +inf
   0 <= x700 <= +inf
   0 <= x701 <= +inf
   0 <= x702 <= +inf
   0 <= x703 <= +inf
   0 <= x704 <= +inf
   0 <= x705 <= +inf
binary
  x22
  x23
  x24
  x25
  x26
  x27
  x28
  x29
  x30
  x31
  x32
  x33
  x34
  x35
  x36
  x37
  x38
  x39
  x40
  x41
  x42
  x43
  x44
  x45
  x46
  x47
  x48
  x49
  x50
  x51
  x52
  x53
  x54
  x55
  x56
  x57
  x58
  x59
  x60
  x61
  x62
  x63
  x64
  x65
  x66
  x67
  x68
  x69
  x70
  x71
  x72
  x73
  x74
  x75
  x76
  x77
  x78
  x79
  x80
  x81
  x82
  x83
  x84
  x85
  x86
  x87
  x88
  x89
  x90
  x91
  x92
  x93
  x94
  x95
  x96
  x97
  x98
  x99
  x100
  x101
  x102
  x103
  x104
  x105
  x106
  x107
  x108
  x109
  x110
  x111
  x112
  x113
  x114
  x115
  x116
  x117
  x118
  x119
  x120
  x121
  x122
  x123
  x124
  x125
  x126
  x127
  x128
  x129
  x130
  x131
  x132
  x133
  x134
  x135
  x136
  x137
  x138
  x139
  x140
  x141
  x142
  x143
  x144
  x145
  x146
  x147
  x148
  x149
  x150
  x151
  x152
  x153
  x154
  x155
  x156
  x157
  x158
  x159
  x160
  x161
  x162
  x163
  x164
  x165
  x166
  x167
  x168
  x169
  x170
  x171
  x172
  x173
  x174
  x175
  x176
  x177
  x178
  x179
  x180
  x181
  x182
  x183
  x184
  x185
  x186
  x187
  x188
  x189
  x190
  x191
  x192
  x193
  x194
  x195
  x196
  x197
  x198
  x199
SOS
x949: S1::
x28:1
x22:2
x23:3
end
